# Bin Packing Problem
# the best solution [1,2,3....1000], fitness = 500
0.1
0.9
0.2
0.8
0.3
0.7
0.4
0.6
0.5
0.5
0.1
0.9
0.2
0.8
0.3
0.7
0.4
0.6
0.5
0.5
0.1
0.9
0.2
0.8
0.3
0.7
0.4
0.6
0.5
0.5
0.1
0.9
0.2
0.8
0.3
0.7
0.4
0.6
0.5
0.5
0.1
0.9
0.2
0.8
0.3
0.7
0.4
0.6
0.5
0.5
0.1
0.9
0.2
0.8
0.3
0.7
0.4
0.6
0.5
0.5
0.1
0.9
0.2
0.8
0.3
0.7
0.4
0.6
0.5
0.5
0.1
0.9
0.2
0.8
0.3
0.7
0.4
0.6
0.5
0.5
0.1
0.9
0.2
0.8
0.3
0.7
0.4
0.6
0.5
0.5
0.1
0.9
0.2
0.8
0.3
0.7
0.4
0.6
0.5
0.5
0.1
0.9
0.2
0.8
0.3
0.7
0.4
0.6
0.5
0.5
0.1
0.9
0.2
0.8
0.3
0.7
0.4
0.6
0.5
0.5
0.1
0.9
0.2
0.8
0.3
0.7
0.4
0.6
0.5
0.5
0.1
0.9
0.2
0.8
0.3
0.7
0.4
0.6
0.5
0.5
0.1
0.9
0.2
0.8
0.3
0.7
0.4
0.6
0.5
0.5
0.1
0.9
0.2
0.8
0.3
0.7
0.4
0.6
0.5
0.5
0.1
0.9
0.2
0.8
0.3
0.7
0.4
0.6
0.5
0.5
0.1
0.9
0.2
0.8
0.3
0.7
0.4
0.6
0.5
0.5
0.1
0.9
0.2
0.8
0.3
0.7
0.4
0.6
0.5
0.5
0.1
0.9
0.2
0.8
0.3
0.7
0.4
0.6
0.5
0.5
0.1
0.9
0.2
0.8
0.3
0.7
0.4
0.6
0.5
0.5
0.1
0.9
0.2
0.8
0.3
0.7
0.4
0.6
0.5
0.5
0.1
0.9
0.2
0.8
0.3
0.7
0.4
0.6
0.5
0.5
0.1
0.9
0.2
0.8
0.3
0.7
0.4
0.6
0.5
0.5
0.1
0.9
0.2
0.8
0.3
0.7
0.4
0.6
0.5
0.5
0.1
0.9
0.2
0.8
0.3
0.7
0.4
0.6
0.5
0.5
0.1
0.9
0.2
0.8
0.3
0.7
0.4
0.6
0.5
0.5
0.1
0.9
0.2
0.8
0.3
0.7
0.4
0.6
0.5
0.5
0.1
0.9
0.2
0.8
0.3
0.7
0.4
0.6
0.5
0.5
0.1
0.9
0.2
0.8
0.3
0.7
0.4
0.6
0.5
0.5
0.1
0.9
0.2
0.8
0.3
0.7
0.4
0.6
0.5
0.5
0.1
0.9
0.2
0.8
0.3
0.7
0.4
0.6
0.5
0.5
0.1
0.9
0.2
0.8
0.3
0.7
0.4
0.6
0.5
0.5
0.1
0.9
0.2
0.8
0.3
0.7
0.4
0.6
0.5
0.5
0.1
0.9
0.2
0.8
0.3
0.7
0.4
0.6
0.5
0.5
0.1
0.9
0.2
0.8
0.3
0.7
0.4
0.6
0.5
0.5
0.1
0.9
0.2
0.8
0.3
0.7
0.4
0.6
0.5
0.5
0.1
0.9
0.2
0.8
0.3
0.7
0.4
0.6
0.5
0.5
0.1
0.9
0.2
0.8
0.3
0.7
0.4
0.6
0.5
0.5
0.1
0.9
0.2
0.8
0.3
0.7
0.4
0.6
0.5
0.5
0.1
0.9
0.2
0.8
0.3
0.7
0.4
0.6
0.5
0.5
0.1
0.9
0.2
0.8
0.3
0.7
0.4
0.6
0.5
0.5
0.1
0.9
0.2
0.8
0.3
0.7
0.4
0.6
0.5
0.5
0.1
0.9
0.2
0.8
0.3
0.7
0.4
0.6
0.5
0.5
0.1
0.9
0.2
0.8
0.3
0.7
0.4
0.6
0.5
0.5
0.1
0.9
0.2
0.8
0.3
0.7
0.4
0.6
0.5
0.5
0.1
0.9
0.2
0.8
0.3
0.7
0.4
0.6
0.5
0.5
0.1
0.9
0.2
0.8
0.3
0.7
0.4
0.6
0.5
0.5
0.1
0.9
0.2
0.8
0.3
0.7
0.4
0.6
0.5
0.5
0.1
0.9
0.2
0.8
0.3
0.7
0.4
0.6
0.5
0.5
0.1
0.9
0.2
0.8
0.3
0.7
0.4
0.6
0.5
0.5
0.1
0.9
0.2
0.8
0.3
0.7
0.4
0.6
0.5
0.5
0.1
0.9
0.2
0.8
0.3
0.7
0.4
0.6
0.5
0.5
0.1
0.9
0.2
0.8
0.3
0.7
0.4
0.6
0.5
0.5
0.1
0.9
0.2
0.8
0.3
0.7
0.4
0.6
0.5
0.5
0.1
0.9
0.2
0.8
0.3
0.7
0.4
0.6
0.5
0.5
0.1
0.9
0.2
0.8
0.3
0.7
0.4
0.6
0.5
0.5
0.1
0.9
0.2
0.8
0.3
0.7
0.4
0.6
0.5
0.5
0.1
0.9
0.2
0.8
0.3
0.7
0.4
0.6
0.5
0.5
0.1
0.9
0.2
0.8
0.3
0.7
0.4
0.6
0.5
0.5
0.1
0.9
0.2
0.8
0.3
0.7
0.4
0.6
0.5
0.5
0.1
0.9
0.2
0.8
0.3
0.7
0.4
0.6
0.5
0.5
0.1
0.9
0.2
0.8
0.3
0.7
0.4
0.6
0.5
0.5
0.1
0.9
0.2
0.8
0.3
0.7
0.4
0.6
0.5
0.5
0.1
0.9
0.2
0.8
0.3
0.7
0.4
0.6
0.5
0.5
0.1
0.9
0.2
0.8
0.3
0.7
0.4
0.6
0.5
0.5
0.1
0.9
0.2
0.8
0.3
0.7
0.4
0.6
0.5
0.5
0.1
0.9
0.2
0.8
0.3
0.7
0.4
0.6
0.5
0.5
0.1
0.9
0.2
0.8
0.3
0.7
0.4
0.6
0.5
0.5
0.1
0.9
0.2
0.8
0.3
0.7
0.4
0.6
0.5
0.5
0.1
0.9
0.2
0.8
0.3
0.7
0.4
0.6
0.5
0.5
0.1
0.9
0.2
0.8
0.3
0.7
0.4
0.6
0.5
0.5
0.1
0.9
0.2
0.8
0.3
0.7
0.4
0.6
0.5
0.5
0.1
0.9
0.2
0.8
0.3
0.7
0.4
0.6
0.5
0.5
0.1
0.9
0.2
0.8
0.3
0.7
0.4
0.6
0.5
0.5
0.1
0.9
0.2
0.8
0.3
0.7
0.4
0.6
0.5
0.5
0.1
0.9
0.2
0.8
0.3
0.7
0.4
0.6
0.5
0.5
0.1
0.9
0.2
0.8
0.3
0.7
0.4
0.6
0.5
0.5
0.1
0.9
0.2
0.8
0.3
0.7
0.4
0.6
0.5
0.5
0.1
0.9
0.2
0.8
0.3
0.7
0.4
0.6
0.5
0.5
0.1
0.9
0.2
0.8
0.3
0.7
0.4
0.6
0.5
0.5
0.1
0.9
0.2
0.8
0.3
0.7
0.4
0.6
0.5
0.5
0.1
0.9
0.2
0.8
0.3
0.7
0.4
0.6
0.5
0.5
0.1
0.9
0.2
0.8
0.3
0.7
0.4
0.6
0.5
0.5
0.1
0.9
0.2
0.8
0.3
0.7
0.4
0.6
0.5
0.5
0.1
0.9
0.2
0.8
0.3
0.7
0.4
0.6
0.5
0.5
0.1
0.9
0.2
0.8
0.3
0.7
0.4
0.6
0.5
0.5
0.1
0.9
0.2
0.8
0.3
0.7
0.4
0.6
0.5
0.5
0.1
0.9
0.2
0.8
0.3
0.7
0.4
0.6
0.5
0.5
0.1
0.9
0.2
0.8
0.3
0.7
0.4
0.6
0.5
0.5
0.1
0.9
0.2
0.8
0.3
0.7
0.4
0.6
0.5
0.5
0.1
0.9
0.2
0.8
0.3
0.7
0.4
0.6
0.5
0.5
0.1
0.9
0.2
0.8
0.3
0.7
0.4
0.6
0.5
0.5
0.1
0.9
0.2
0.8
0.3
0.7
0.4
0.6
0.5
0.5
0.1
0.9
0.2
0.8
0.3
0.7
0.4
0.6
0.5
0.5
0.1
0.9
0.2
0.8
0.3
0.7
0.4
0.6
0.5
0.5
0.1
0.9
0.2
0.8
0.3
0.7
0.4
0.6
0.5
0.5
0.1
0.9
0.2
0.8
0.3
0.7
0.4
0.6
0.5
0.5
0.1
0.9
0.2
0.8
0.3
0.7
0.4
0.6
0.5
0.5
0.1
0.9
0.2
0.8
0.3
0.7
0.4
0.6
0.5
0.5
